1032
34
106
174
246
302
333
367
449
528
584
633
696
770
848
926
992
1020
1021
1035
1036
1037
1038
1039
1040
1069
1083
1101
1146
1160
1181
1182
1183
1184
1224
1226
1232
1240
1254
1255
1256
1257
1258
1259
1260
1261
1269
1297
1305
1313
1366
1371
1373
1380
1384
1398
1399
1400
1401
1402
1403
1404
1405
1406
1407
1408
1409
1410
1411
1412
1419
1420
1421
1422
1423
1424
1425
1426
1427
1428
1441
1448
1453
1457
1482
1483
1495
1496
1497
1498
1499
1500
1501
1502
1503
1504
1505
1514
1523
1528
1531
1552
1553
1554
1555
1556
1557
1585
1592
1595
1599
1615
1619
1620
1621
1622
1623
1627
1633
1647
1653
1660
1664
1682
1683
1700
1701
1711
1722